files/upTests/set-of-sets_nested_literals/0003.eprime.solution
language ESSENCE' 1.0
$ minion Nodes: 1
$ minion TotalTime: 0.001136
$ Savile Row TotalTime: 0.315
letting x_SetExplicit_SetExplicitVarSize_tuple2_SetOccurrence be [[[true, true;int(2..3)], 
[true, false;int(2..3)];int(1..2)];int(1..1)]
letting x_SetExplicit_SetExplicitVarSize_tuple1 be [[true, true;int(1..2)];int(1..1)]
